solution status: optimal solution found
objective value:                     137088.266622457
d11(0,0)                                            1 	(obj:0)
d11(1,1)                                            1 	(obj:0)
d11(1,2)                                            1 	(obj:0)
d11(2,3)                                            1 	(obj:0)
d11(2,5)                                            1 	(obj:0)
d11(3,9)                                            1 	(obj:0)
d11(3,11)                                           1 	(obj:0)
d11(3,13)                                           1 	(obj:0)
d12(3,8)                                            1 	(obj:0)
d12(3,10)                                           1 	(obj:0)
d12(3,12)                                           1 	(obj:0)
d12(3,14)                                           1 	(obj:0)
d21(2,3)                                            1 	(obj:0)
d21(3,7)                                            1 	(obj:0)
d21(3,8)                                            1 	(obj:0)
d21(3,11)                                           1 	(obj:0)
y2(3,8)                              1385.48851144895 	(obj:0)
y2(3,10)                             1385.48851144895 	(obj:0)
y2(3,12)                             1385.48851144895 	(obj:0)
y2(3,14)                             1385.48851144895 	(obj:0)
STE(1,1)                              7055.9999999979 	(obj:0)
STE(0,0)                                        12600 	(obj:0)
STE(1,2)                             8714.24989888672 	(obj:0)
STE(2,3)                             4389.75010110904 	(obj:0)
STE(2,4)                              6047.9999999979 	(obj:0)
STE(2,5)                             6047.99999999786 	(obj:0)
STE(2,6)                             7706.24989888672 	(obj:0)
STE(3,7)                             3381.75010110904 	(obj:0)
STE(3,8)                             4697.96418698554 	(obj:0)
STE(3,9)                              5039.9999999979 	(obj:0)
STE(3,10)                            6356.21408587441 	(obj:0)
STE(3,11)                            5039.99999999786 	(obj:0)
STE(3,12)                            6356.21408587436 	(obj:0)
STE(3,13)                            6698.24989888672 	(obj:0)
STE(3,14)                            8014.46398476322 	(obj:0)
AVE(2)                               3315.65537776224 	(obj:0)
WB(3)                                3315.65799770399 	(obj:0)
y1(1,1)                              4082.40000000189 	(obj:0)
y1(1,2)                              2589.97509100195 	(obj:0)
y1(2,3)                              1492.42490899998 	(obj:0)
y1(2,5)                              1492.42490899998 	(obj:0)
AVE(3)                               3315.65799770399 	(obj:0)
WG(1)                                3248.33172520918 	(obj:10)
WG(2)                                3315.65537776224 	(obj:10)
BG(1)                                3590.79249928258 	(obj:10)
BG(2)                                880.637121217351 	(obj:10)
BG(3)                                2673.40993877551 	(obj:10)
AVE(1)                               3248.33172520918 	(obj:0)
